Minimize
	value: tt

Subject to
tt + 500 s_1_1 > 0
tt - t_1_1 - 500.000000 s_1_1 > -489.301000
tt + 500 s_2_1 > 0
tt - t_2_1 - 500.000000 s_2_1 > -496.392500
tt + 500 s_1_2 > 0
tt - t_1_2 - 500.000000 s_1_2 > -438.133300
tt + 500 s_2_2 > 0
tt - t_2_2 - 500.000000 s_2_2 > -477.351614
tt + 500 s_1_3 > 0
tt - t_1_3 - 500.000000 s_1_3 > -464.151100
tt + 500 s_2_3 > 0
tt - t_2_3 - 500.000000 s_2_3 > -482.716000
tt + 500 s_1_4 > 0
tt - t_1_4 - 500.000000 s_1_4 > -492.709000
tt + 500 s_2_4 > 0
tt - t_2_4 - 500.000000 s_2_4 > -495.431700
tt + 500 s_1_5 > 0
tt - t_1_5 - 524.841840 s_1_5 + 24.841840 s_1_1 > -499.643200
tt + 500 s_2_5 > 0
tt - t_2_5 - 580.015040 s_2_5 + 80.015040 s_2_1 > -498.324300
s_1_1 + s_2_1  = 1
s_1_2 + s_2_2  = 1
s_1_3 + s_2_3  = 1
s_1_4 + s_2_4  = 1
s_1_5 + s_2_5  = 1
t_1_1 - t_1_2 + 500.000000 u_1_1_2 > 61.866700
t_1_2 - t_1_1 - 500.000000 u_1_1_2 > -489.301000
t_2_1 - t_2_2 + 500.000000 u_2_1_2 > 22.648386
t_2_2 - t_2_1 - 500.000000 u_2_1_2 > -496.392500
t_1_1 - t_1_3 + 500.000000 u_1_1_3 > 35.848900
t_1_3 - t_1_1 - 500.000000 u_1_1_3 > -489.301000
t_2_1 - t_2_3 + 500.000000 u_2_1_3 > 17.284000
t_2_3 - t_2_1 - 500.000000 u_2_1_3 > -496.392500
t_1_1 - t_1_4 + 500.000000 u_1_1_4 > 7.291000
t_1_4 - t_1_1 - 500.000000 u_1_1_4 > -489.301000
t_2_1 - t_2_4 + 500.000000 u_2_1_4 > 4.568300
t_2_4 - t_2_1 - 500.000000 u_2_1_4 > -496.392500
t_1_5 - t_1_1 - 500.000000 s_1_1 > -487.029370
t_1_5 - t_2_1 - 500.000000 s_2_1 > -488.111820
t_2_5 - t_1_1 - 500.000000 s_1_1 > -487.029370
t_2_5 - t_2_1 - 500.000000 s_2_1 > -488.111820
t_1_2 - t_1_1 + 500.000000 u_1_2_1 > 10.699000
t_1_1 - t_1_2 - 500.000000 u_1_2_1 > -438.133300
t_2_2 - t_2_1 + 500.000000 u_2_2_1 > 3.607500
t_2_1 - t_2_2 - 500.000000 u_2_2_1 > -477.351614
t_1_2 - t_1_3 + 500.000000 u_1_2_3 > 35.848900
t_1_3 - t_1_2 - 500.000000 u_1_2_3 > -438.133300
t_2_2 - t_2_3 + 500.000000 u_2_2_3 > 17.284000
t_2_3 - t_2_2 - 500.000000 u_2_2_3 > -477.351614
t_1_2 - t_1_4 + 500.000000 u_1_2_4 > 7.291000
t_1_4 - t_1_2 - 500.000000 u_1_2_4 > -438.133300
t_2_2 - t_2_4 + 500.000000 u_2_2_4 > 4.568300
t_2_4 - t_2_2 - 500.000000 u_2_2_4 > -477.351614
t_1_5 - t_1_2 - 500.000000 s_1_2 > -435.861670
t_1_5 - t_2_2 - 500.000000 s_2_2 > -469.070934
t_2_5 - t_1_2 - 500.000000 s_1_2 > -435.861670
t_2_5 - t_2_2 - 500.000000 s_2_2 > -469.070934
t_1_3 - t_1_1 + 500.000000 u_1_3_1 > 10.699000
t_1_1 - t_1_3 - 500.000000 u_1_3_1 > -464.151100
t_2_3 - t_2_1 + 500.000000 u_2_3_1 > 3.607500
t_2_1 - t_2_3 - 500.000000 u_2_3_1 > -482.716000
t_1_3 - t_1_2 + 500.000000 u_1_3_2 > 61.866700
t_1_2 - t_1_3 - 500.000000 u_1_3_2 > -464.151100
t_2_3 - t_2_2 + 500.000000 u_2_3_2 > 22.648386
t_2_2 - t_2_3 - 500.000000 u_2_3_2 > -482.716000
t_1_3 - t_1_4 + 500.000000 u_1_3_4 > 7.291000
t_1_4 - t_1_3 - 500.000000 u_1_3_4 > -464.151100
t_2_3 - t_2_4 + 500.000000 u_2_3_4 > 4.568300
t_2_4 - t_2_3 - 500.000000 u_2_3_4 > -482.716000
t_1_5 - t_1_3 - 500.000000 s_1_3 > -461.879470
t_1_5 - t_2_3 - 500.000000 s_2_3 > -474.435320
t_2_5 - t_1_3 - 500.000000 s_1_3 > -461.879470
t_2_5 - t_2_3 - 500.000000 s_2_3 > -474.435320
t_1_4 - t_1_1 + 500.000000 u_1_4_1 > 10.699000
t_1_1 - t_1_4 - 500.000000 u_1_4_1 > -492.709000
t_2_4 - t_2_1 + 500.000000 u_2_4_1 > 3.607500
t_2_1 - t_2_4 - 500.000000 u_2_4_1 > -495.431700
t_1_4 - t_1_2 + 500.000000 u_1_4_2 > 61.866700
t_1_2 - t_1_4 - 500.000000 u_1_4_2 > -492.709000
t_2_4 - t_2_2 + 500.000000 u_2_4_2 > 22.648386
t_2_2 - t_2_4 - 500.000000 u_2_4_2 > -495.431700
t_1_4 - t_1_3 + 500.000000 u_1_4_3 > 35.848900
t_1_3 - t_1_4 - 500.000000 u_1_4_3 > -492.709000
t_2_4 - t_2_3 + 500.000000 u_2_4_3 > 17.284000
t_2_3 - t_2_4 - 500.000000 u_2_4_3 > -495.431700
t_1_5 - t_1_4 - 500.000000 s_1_4 > -490.437370
t_1_5 - t_2_4 - 500.000000 s_2_4 > -487.151020
t_2_5 - t_1_4 - 500.000000 s_1_4 > -490.437370
t_2_5 - t_2_4 - 500.000000 s_2_4 > -487.151020
t_1_5 - t_1_1 - 500.000000 s_1_1 > -487.029370
t_1_5 - t_2_1 - 500.000000 s_2_1 > -488.111820
t_2_5 - t_1_1 - 500.000000 s_1_1 > -487.029370
t_2_5 - t_2_1 - 500.000000 s_2_1 > -488.111820
t_1_5 - t_1_2 - 500.000000 s_1_2 > -435.861670
t_1_5 - t_2_2 - 500.000000 s_2_2 > -469.070934
t_2_5 - t_1_2 - 500.000000 s_1_2 > -435.861670
t_2_5 - t_2_2 - 500.000000 s_2_2 > -469.070934
t_1_5 - t_1_3 - 500.000000 s_1_3 > -461.879470
t_1_5 - t_2_3 - 500.000000 s_2_3 > -474.435320
t_2_5 - t_1_3 - 500.000000 s_1_3 > -461.879470
t_2_5 - t_2_3 - 500.000000 s_2_3 > -474.435320
t_1_5 - t_1_4 - 500.000000 s_1_4 > -490.437370
t_1_5 - t_2_4 - 500.000000 s_2_4 > -487.151020
t_2_5 - t_1_4 - 500.000000 s_1_4 > -490.437370
t_2_5 - t_2_4 - 500.000000 s_2_4 > -487.151020
Binary
s_1_1
s_2_1
s_1_2
s_2_2
s_1_3
s_2_3
s_1_4
s_2_4
s_1_5
s_2_5
u_1_1_2
u_2_1_2
u_1_1_3
u_2_1_3
u_1_1_4
u_2_1_4
u_1_2_1
u_2_2_1
u_1_2_3
u_2_2_3
u_1_2_4
u_2_2_4
u_1_3_1
u_2_3_1
u_1_3_2
u_2_3_2
u_1_3_4
u_2_3_4
u_1_4_1
u_2_4_1
u_1_4_2
u_2_4_2
u_1_4_3
u_2_4_3

End
